SPARKNaCl/why3-z3/sparknacl-hkdf.adb_32_34_range_check_1.smt2
;; produced by z3_gnatprove.drv ;;
(set-info :smt-lib-version 2.5)
(set-info :source |VC generated by SPARK 2014|)
(set-info :category industrial)
(set-info :status unknown)
;;; generated by SMT-LIB2 driver
;;; SMT-LIB2 driver: bit-vectors, common part
;;; SMT-LIB2: integer arithmetic
(define-fun __cdiv ((x Int) (y Int)) Int (ite (>= x 0) (div x y) (- (div (- x) y))))
(define-fun __cmod ((x Int) (y Int)) Int (ite (>= x 0) (mod x y) (- (mod (- x) y))))
;; "length"
(define-fun length ((x Int) (y Int)) Int
  (ite (<= x y) (+ (- y x) 1) 0))

(declare-datatypes ()
  ((t__ref (t__refqtmk (t__content (_ BitVec 8))))))

(declare-sort tinteger_32B 0)

;; "tinteger_32B'int"
(declare-fun tinteger_32Bqtint (tinteger_32B) Int)

;; "tinteger_32B'axiom"
(assert
  (forall ((i tinteger_32B))
    (and
      (<= (- 2147483648) (tinteger_32Bqtint i))
      (<= (tinteger_32Bqtint i) 2147483647))))

;; "in_range"
(define-fun in_range ((x Int)) Bool
  (and (<= (- 2147483648) x) (<= x 2147483647)))

;; "to_rep"
(define-fun to_rep ((x tinteger_32B)) Int
  (tinteger_32Bqtint x))

;; "of_rep"
(declare-fun of_rep (Int) tinteger_32B)

;; "inversion_axiom"
(assert
  (forall ((x tinteger_32B))
    (! (= (of_rep (to_rep x)) x) :pattern ((to_rep x)) )))

;; "range_axiom"
(assert
  (forall ((x tinteger_32B))
    (! (in_range (to_rep x)) :pattern ((to_rep x)) )))

;; "coerce_axiom"
(assert
  (forall ((x Int))
    (! (=> (in_range x) (= (to_rep (of_rep x)) x)) :pattern ((to_rep
                                                               (of_rep x))) )))

;; "in_range"
(define-fun in_range1 ((x Int)) Bool
  (and (<= 0 x) (<= x 2147483647)))

(declare-sort byte 0)

;; "to_rep"
(declare-fun to_rep1 (byte) (_ BitVec 8))

;; "of_rep"
(declare-fun of_rep1 ((_ BitVec 8)) byte)

;; "inversion_axiom"
(assert
  (forall ((x byte)) (! (= (of_rep1 (to_rep1 x)) x) :pattern ((to_rep1 x)) )))

;; "range_axiom"
(assert true)

;; "coerce_axiom"
(assert
  (forall ((x (_ BitVec 8)))
    (! (= (to_rep1 (of_rep1 x)) x) :pattern ((to_rep1 (of_rep1 x))) )))

(declare-sort map1 0)

(declare-datatypes ()
  ((map__ref (map__refqtmk (map__content map1)))))

;; "has_bounds"
(declare-fun has_bounds (map1
  Int
  Int) Bool)

;; "get"
(declare-fun get (map1
  Int) byte)

(declare-datatypes ()
  ((t (tqtmk (rec__first tinteger_32B)(rec__last tinteger_32B)))))

;; "mk"
(declare-fun mk (Int
  Int) t)

;; "mk_def"
(assert
  (forall ((f Int) (l Int))
    (! (=>
         (in_range f)
         (=>
           (in_range l)
           (and
             (= (to_rep (rec__first (mk f l))) f)
             (= (to_rep (rec__last (mk f l))) l)))) :pattern ((mk f l)) )))

;; "dynamic_property"
(define-fun dynamic_property ((range_first Int) (range_last Int) (low Int) (high Int)) Bool
  (and
    (in_range low)
    (and
      (in_range high)
      (=> (<= low high) (and (in_range1 low) (in_range1 high))))))

(declare-datatypes ()
  ((us_t (us_tqtmk (elts map1)(rt t)))))

;; "of_array"
(define-fun of_array ((a map1) (f Int) (l Int)) us_t
  (us_tqtmk a (mk f l)))

;; "first"
(define-fun first ((a us_t)) Int
  (to_rep (rec__first (rt a))))

;; "last"
(define-fun last ((a us_t)) Int
  (to_rep (rec__last (rt a))))

;; "length"
(define-fun length1 ((a us_t)) Int
  (ite (<= (first a) (last a)) (+ (- (last a) (first a)) 1) 0))

;; "well_formed"
(define-fun well_formed ((a us_t)) Bool
  (has_bounds
    (elts a)
    (to_rep (rec__first (rt a)))
    (to_rep (rec__last (rt a)))))

(declare-datatypes ()
  ((byte__init_wrapper
   (byte__init_wrapperqtmk (rec__value byte)(us_attr__init Bool)))))

(declare-sort map2 0)

(declare-datatypes ()
  ((map__ref1 (map__refqtmk1 (map__content1 map2)))))

;; "has_bounds"
(declare-fun has_bounds1 (map2
  Int
  Int) Bool)

;; "get"
(declare-fun get1 (map2
  Int) byte__init_wrapper)

(declare-const okm__first tinteger_32B)

(declare-const okm__last tinteger_32B)

(declare-const prk map1)

(declare-const info us_t)

;; "in_range"
(define-fun in_range2 ((x Int)) Bool
  (and (<= 0 x) (<= x 8159)))

;; "convert"
(declare-fun convert (map1) map2)

;; "convert__def"
(assert
  (forall ((a map1))
    (let ((b (convert a)))
      (forall ((temp___170 Int))
        (and
          (= (us_attr__init
               (byte__init_wrapperqtmk
                 (of_rep1 (to_rep1 (get a temp___170)))
                 true)) (us_attr__init (get1 b temp___170)))
          (= (to_rep1
               (rec__value
                 (byte__init_wrapperqtmk
                   (of_rep1 (to_rep1 (get a temp___170)))
                   true))) (to_rep1 (rec__value (get1 b temp___170)))))))))

;; "dynamic_property"
(define-fun dynamic_property1 ((range_first Int) (range_last Int) (low Int) (high Int)) Bool
  (and
    (in_range low)
    (and
      (in_range high)
      (=> (<= low high) (and (in_range2 low) (in_range2 high))))))

(declare-datatypes ()
  ((t1 (tqtmk1 (rec__first1 tinteger_32B)(rec__last1 tinteger_32B)))))

;; "mk"
(declare-fun mk1 (Int
  Int) t1)

;; "mk_def"
(assert
  (forall ((f Int) (l Int))
    (! (=>
         (in_range f)
         (=>
           (in_range l)
           (and
             (= (to_rep (rec__first1 (mk1 f l))) f)
             (= (to_rep (rec__last1 (mk1 f l))) l)))) :pattern ((mk1 f l)) )))

(declare-datatypes ()
  ((us_t1 (us_tqtmk1 (elts1 map2)(rt1 t1)))))

;; "of_array"
(define-fun of_array1 ((a map2) (f Int) (l Int)) us_t1
  (us_tqtmk1 a (mk1 f l)))

;; "well_formed"
(define-fun well_formed1 ((a us_t1)) Bool
  (has_bounds1
    (elts1 a)
    (to_rep (rec__first1 (rt1 a)))
    (to_rep (rec__last1 (rt1 a)))))

;; "dynamic_invariant"
(define-fun dynamic_invariant ((temp___expr_244 us_t) (temp___is_init_240 Bool) (temp___skip_constant_241 Bool) (temp___do_toplevel_242 Bool) (temp___do_typ_inv_243 Bool)) Bool
  (and
    (=>
      (not (= temp___skip_constant_241 true))
      (dynamic_property
        0
        2147483647
        (first temp___expr_244)
        (last temp___expr_244)))
    (well_formed temp___expr_244)))

(declare-const okm map2)

(declare-const ti map1)

;; "ti'unused"
(define-fun tiqtunused () map__ref
  (map__refqtmk ti))

;; "okm'unused"
(define-fun okmqtunused () map__ref1
  (map__refqtmk1 okm))

;; "Assume"
(assert
  (and
    (dynamic_property1 0 8159 (to_rep okm__first) (to_rep okm__last))
    (well_formed1 (of_array1 okm (to_rep okm__first) (to_rep okm__last)))))

;; "Assume"
(assert (has_bounds prk 0 31))

;; "Assume"
(assert (dynamic_invariant info true false true true))

;; "Assume"
(assert
  (and
    (and
      (and
        (and
          (= (to_rep okm__first) 0)
          (< 0 (length (to_rep okm__first) (to_rep okm__last))))
        (<= (length (to_rep okm__first) (to_rep okm__last)) 8160))
      (=> (< 0 (length1 info)) (= (first info) 0)))
    (bvult ((_ int2bv 32) (length1 info)) #x7FFFFF9E)))

;; "Assume"
(assert true)

;; "Assume"
(assert (has_bounds ti 0 31))

(declare-const b (_ BitVec 8))

;; "b'unused"
(define-fun bqtunused () t__ref
  (t__refqtmk b))

;; "H"
(assert (= b #x01))

;; "Assume"
(assert true)

;; "map__content'result'unused"
(define-fun map__contentqtresultqtunused () map1
  ti)

;; "temp___compl_540"
(define-fun temp___compl_540 () map2
  (convert ti))

;; "convert'result'unused"
(define-fun convertqtresultqtunused () map2
  temp___compl_540)

;; "param__output'unused"
(define-fun param__outputqtunused () map__ref1
  (map__refqtmk1 temp___compl_540))

;; "map__ref'mk'result'unused"
(define-fun map__refqtmkqtresultqtunused () map__ref1
  (map__refqtmk1 temp___compl_540))

;; "o"
(define-fun o () us_t
  (of_array prk 0 31))

;; "of_array'result'unused"
(define-fun of_arrayqtresultqtunused () us_t
  o)

;; "o"
(define-fun o1 () Int
  (length1 info))

;; "length'result'unused"
(define-fun lengthqtresultqtunused () Int
  o1)

;; "infix ='result'unused"
(define-fun infix_eqqtresultqtunused () Bool
  (ite (= o1 0) true false))

;; "H"
(assert (not (= o1 0)))

;; "o"
(define-fun o2 () Int
  (last info))

;; "last'result'unused"
(define-fun lastqtresultqtunused () Int
  o2)

;; "o"
(define-fun o3 () Int
  (first info))

;; "first'result'unused"
(define-fun firstqtresultqtunused () Int
  o3)

;; "o"
(define-fun o4 () Int
  (length o3 o2))

;; "length'result'unused"
(define-fun lengthqtresultqtunused1 () Int
  o4)

;; "o"
(define-fun o5 () Int
  (+ o4 1))

;; "infix +'result'unused"
(define-fun infix_plqtresultqtunused () Int
  o5)

;; "o"
(define-fun o6 () Int
  (first info))

;; "first'result'unused"
(define-fun firstqtresultqtunused1 () Int
  o6)

;; "o"
(define-fun o7 () Int
  (+ o6 o5))

;; "infix +'result'unused"
(define-fun infix_plqtresultqtunused1 () Int
  o7)

;; "o"
(define-fun o8 () Int
  (- o7 1))

;; "infix -'result'unused"
(define-fun infix_mnqtresultqtunused () Int
  o8)

;; Goal "def'vc"
;; File "sparknacl-hkdf.ads", line 25, characters 0-0
(assert
  (not (<= 0 o8)))

(check-sat)
